&bands
   outdir = './tmp/',
   prefix='NaCl',
   filband='NaCl_bands.dat',
   lsym=.true.
/
